Version identifier: 22.1.1.0 | 2022-11-28 | 9160aff4d
CPXPARAM_ClockType                               1
CPXPARAM_Read_DataCheck                          1
CPXPARAM_Threads                                 1
CPXPARAM_TimeLimit                               7200
CPXPARAM_MIP_Tolerances_AbsMIPGap                0
CPXPARAM_MIP_Tolerances_MIPGap                   0
CPXPARAM_MIP_Tolerances_Integrality              0
Found incumbent of value 0.000000 after 0.00 sec. (0.87 ticks)
Tried aggregator 2 times.
MIP Presolve eliminated 3 rows and 1 columns.
MIP Presolve modified 2 coefficients.
Aggregator did 127 substitutions.
Reduced MIP has 12642 rows, 634 columns, and 38303 nonzeros.
Reduced MIP has 634 binaries, 0 generals, 0 SOSs, and 0 indicators.
Presolve time = 0.04 sec. (25.57 ticks)
Probing time = 0.00 sec. (2.75 ticks)
Tried aggregator 1 time.
Detecting symmetries...
MIP Presolve eliminated 64 rows and 3 columns.
Reduced MIP has 12578 rows, 631 columns, and 38109 nonzeros.
Reduced MIP has 631 binaries, 0 generals, 0 SOSs, and 0 indicators.
Presolve time = 0.05 sec. (31.70 ticks)
Probing time = 0.00 sec. (2.72 ticks)
Clique table members: 380.
MIP emphasis: balance optimality and feasibility.
MIP search method: dynamic search.
Parallel mode: none, using 1 thread.
Root relaxation solution time = 0.02 sec. (18.13 ticks)

        Nodes                                         Cuts/
   Node  Left     Objective  IInf  Best Integer    Best Bound    ItCnt     Gap

*     0+    0                            0.0000      127.0000              --- 
      0     0      127.0000   126        0.0000      127.0000        0     --- 
*     0+    0                          127.0000      127.0000             0.00%
      0     0        cutoff            127.0000      127.0000        0    0.00%
Elapsed time = 0.14 sec. (105.24 ticks, tree = 0.01 MB, solutions = 2)

Root node processing (before b&c):
  Real time             =    0.14 sec. (105.33 ticks)
Sequential b&c:
  Real time             =    0.00 sec. (0.00 ticks)
                          ------------
Total (root+branch&cut) =    0.14 sec. (105.33 ticks)
Solution is feasible.

---------------------
@@@ MIP_optimal
>>> Benchmark mc2024_track1_175.cnf k 2 OPT 127 TimeCost 0.7216365337371826 TimeSolve 0.15237116813659668 TimeRead 0.011870145797729492 TimeTrans 0.5573952198028564
